p cnf 356 1540
e 1 0
a 2 3 4 5 6 7 8 9 0
e 10 11 12 13 14 15 16 17 18 19 20 21 22 23 24 25 26 27 28 29 30 31 32 33 34 35 36 37 38 39 40 41 42 43 44 45 46 47 48 49 50 51 52 53 54 55 56 57 58 59 60 61 62 63 64 65 66 67 68 69 70 71 72 73 74 75 76 77 78 79 80 81 82 0
a 83 84 85 86 87 88 89 90 0
e 91 92 93 94 95 96 97 98 99 100 101 102 103 104 105 106 107 108 109 110 111 112 113 114 115 116 117 118 119 120 121 122 123 124 125 126 127 128 129 130 131 132 133 134 135 136 137 138 139 140 141 142 143 144 145 146 147 148 149 150 151 152 153 154 155 156 157 158 159 160 161 162 163 0
a 164 165 166 167 168 169 170 171 0
e 172 173 174 175 176 177 178 179 180 181 182 183 184 185 186 187 188 189 190 191 192 193 194 195 196 197 198 199 200 201 202 203 204 205 206 207 208 209 210 211 212 213 214 215 216 217 218 219 220 221 222 223 224 225 226 227 228 229 230 231 232 233 234 235 236 237 238 239 240 241 242 243 244 0
a 245 246 247 248 249 250 251 252 0
e 253 254 255 256 257 258 259 260 261 262 263 264 265 266 267 268 269 270 271 272 273 274 275 276 277 278 279 280 281 282 283 284 285 286 287 288 289 290 291 292 293 294 295 296 297 298 299 300 301 302 303 304 305 306 307 308 309 310 311 312 313 314 315 316 317 318 319 320 321 322 323 324 325 326 327 328 329 330 331 332 333 334 335 336 337 338 339 340 341 342 343 344 345 346 347 348 349 350 351 352 353 354 355 356 0
-1 2 51 3 4 5 0
-1 -2 3 4 53 5 0
-1 -3 2 4 5 55 0
-1 -2 -3 4 5 57 0
-1 2 -4 3 5 59 0
-1 -2 -4 3 5 61 0
-1 -3 2 -4 5 63 0
-1 65 -2 -3 -4 5 0
-1 2 67 3 -5 4 0
-1 -2 3 -5 4 69 0
-1 -3 2 -5 4 71 0
-1 -2 -3 -5 4 73 0
-1 2 -4 3 -5 75 0
-1 -2 -4 3 -5 77 0
-1 -3 2 -4 -5 79 0
-1 81 -2 -3 -4 -5 0
-1 51 6 7 8 9 0
-1 53 -6 7 8 9 0
-1 -7 6 55 8 9 0
-1 -6 -7 8 57 9 0
-1 6 -8 7 9 59 0
-1 -6 -8 7 9 61 0
-1 -7 6 -8 9 63 0
-1 65 -6 -7 -8 9 0
-1 67 6 7 -9 8 0
-1 69 -6 7 -9 8 0
-1 -7 6 71 -9 8 0
-1 -6 -7 -9 8 73 0
-1 6 -8 7 -9 75 0
-1 -6 -8 7 -9 77 0
-1 -7 6 -8 -9 79 0
-1 81 -6 -7 -8 -9 0
-82 50 83 132 84 85 86 0
-82 -83 52 84 85 134 86 0
-82 -84 83 85 54 86 136 0
-82 -83 -84 85 86 56 138 0
-82 83 -85 84 86 58 140 0
-82 -83 -85 84 86 60 142 0
144 -82 -84 83 -85 86 62 0
64 -82 146 -83 -84 -85 86 0
-82 66 83 148 84 -86 85 0
-82 -83 68 84 -86 85 150 0
-82 -84 83 -86 85 70 152 0
-82 -83 -84 -86 85 72 154 0
-82 83 -85 84 -86 74 156 0
-82 -83 -85 84 -86 76 158 0
160 -82 -84 83 -85 -86 78 0
80 -82 162 -83 -84 -85 -86 0
-82 50 132 87 88 89 90 0
-82 52 134 -87 88 89 90 0
-82 54 -88 87 136 89 90 0
-82 -87 -88 56 89 138 90 0
-82 87 -89 88 58 90 140 0
-82 -87 -89 88 90 60 142 0
144 -82 -88 87 -89 90 62 0
64 -82 146 -87 -88 -89 90 0
-82 66 148 87 88 -90 89 0
-82 68 150 -87 88 -90 89 0
-82 70 -88 87 152 -90 89 0
-82 -87 -88 72 -90 89 154 0
-82 87 -89 88 -90 74 156 0
-82 -87 -89 88 -90 76 158 0
160 -82 -88 87 -89 -90 78 0
80 -82 162 -87 -88 -89 -90 0
-163 131 164 213 165 166 167 0
-163 -164 133 165 166 215 167 0
-163 -165 164 166 135 167 217 0
-163 -164 -165 166 167 137 219 0
-163 164 -166 165 167 139 221 0
-163 -164 -166 165 167 141 223 0
225 -163 -165 164 -166 167 143 0
145 -163 227 -164 -165 -166 167 0
-163 147 164 229 165 -167 166 0
-163 -164 149 165 -167 166 231 0
-163 -165 164 -167 166 151 233 0
-163 -164 -165 -167 166 153 235 0
-163 164 -166 165 -167 155 237 0
-163 -164 -166 165 -167 157 239 0
241 -163 -165 164 -166 -167 159 0
161 -163 243 -164 -165 -166 -167 0
-163 131 213 168 169 170 171 0
-163 133 215 -168 169 170 171 0
-163 135 -169 168 217 170 171 0
-163 -168 -169 137 170 219 171 0
-163 168 -170 169 139 171 221 0
-163 -168 -170 169 171 141 223 0
225 -163 -169 168 -170 171 143 0
145 -163 227 -168 -169 -170 171 0
-163 147 229 168 169 -171 170 0
-163 149 231 -168 169 -171 170 0
-163 151 -169 168 233 -171 170 0
-163 -168 -169 153 -171 170 235 0
-163 168 -170 169 -171 155 237 0
-163 -168 -170 169 -171 157 239 0
241 -163 -169 168 -170 -171 159 0
161 -163 243 -168 -169 -170 -171 0
-244 212 245 294 246 247 248 0
-244 -245 214 246 247 296 248 0
-244 -246 245 247 216 248 298 0
-244 -245 -246 247 248 218 300 0
-244 245 -247 246 248 220 302 0
304 -244 -245 -247 246 248 222 0
224 306 -244 -246 245 -247 248 0
226 -244 308 -245 -246 -247 248 0
-244 228 245 310 246 -248 247 0
-244 -245 230 246 -248 247 312 0
-244 -246 245 -248 247 232 314 0
-244 -245 -246 -248 247 234 316 0
-244 245 -247 246 -248 236 318 0
320 -244 -245 -247 246 -248 238 0
240 322 -244 -246 245 -247 -248 0
242 -244 324 -245 -246 -247 -248 0
-244 212 294 249 250 251 252 0
-244 214 296 -249 250 251 252 0
-244 216 -250 249 298 251 252 0
-244 -249 -250 218 251 300 252 0
-244 249 -251 250 220 252 302 0
304 -244 -249 -251 250 252 222 0
224 306 -244 -250 249 -251 252 0
226 -244 308 -249 -250 -251 252 0
-244 228 310 249 250 -252 251 0
-244 230 312 -249 250 -252 251 0
-244 232 -250 249 314 -252 251 0
-244 -249 -250 234 -252 251 316 0
-244 249 -251 250 -252 236 318 0
320 -244 -249 -251 250 -252 238 0
240 322 -244 -250 249 -251 -252 0
242 -244 324 -249 -250 -251 -252 0
-18 -10 0
-18 -11 0
-18 -12 0
-18 -13 0
-19 10 0
-19 -11 0
-19 -12 0
-19 -13 0
-20 -10 0
-20 11 0
-20 -12 0
-20 -13 0
-21 10 0
-21 11 0
-21 -12 0
-21 -13 0
-22 -10 0
-22 -11 0
-22 12 0
-22 -13 0
-23 10 0
-23 -11 0
-23 12 0
-23 -13 0
-24 -10 0
-24 11 0
-24 12 0
-24 -13 0
-25 10 0
-25 11 0
-25 12 0
-25 -13 0
-26 -10 0
-26 -11 0
-26 -12 0
-26 13 0
-27 10 0
-27 -11 0
-27 -12 0
-27 13 0
-10 -28 0
-28 11 0
-28 -12 0
-28 13 0
10 -29 0
11 -29 0
-12 -29 0
-29 13 0
-10 -30 0
-11 -30 0
12 -30 0
-30 13 0
10 -31 0
-11 -31 0
12 -31 0
13 -31 0
-10 -32 0
11 -32 0
12 -32 0
13 -32 0
-33 10 0
-33 11 0
-33 12 0
-33 13 0
-34 -14 0
-34 -15 0
-34 -16 0
-17 -34 0
-35 14 0
-35 -15 0
-35 -16 0
-17 -35 0
-36 -14 0
-36 15 0
-36 -16 0
-17 -36 0
-37 14 0
-37 15 0
-37 -16 0
-17 -37 0
-38 -14 0
-38 -15 0
16 -38 0
-17 -38 0
-39 14 0
-39 -15 0
16 -39 0
-17 -39 0
-40 -14 0
-40 15 0
16 -40 0
-17 -40 0
-41 14 0
-41 15 0
16 -41 0
-17 -41 0
-42 -14 0
-42 -15 0
-42 -16 0
17 -42 0
-43 14 0
-43 -15 0
-43 -16 0
17 -43 0
-44 -14 0
-44 15 0
-44 -16 0
17 -44 0
-45 14 0
-45 15 0
-45 -16 0
17 -45 0
-46 -14 0
-46 -15 0
16 -46 0
17 -46 0
-47 14 0
-47 -15 0
16 -47 0
17 -47 0
-14 -48 0
-48 15 0
16 -48 0
17 -48 0
-49 14 0
-49 15 0
-49 16 0
-49 17 0
-99 -91 0
-99 -92 0
-99 -93 0
-99 -94 0
-100 91 0
-100 -92 0
-100 -93 0
-100 -94 0
-101 -91 0
-101 92 0
-101 -93 0
-101 -94 0
-102 91 0
-102 92 0
-102 -93 0
-102 -94 0
-103 -91 0
-103 -92 0
-103 93 0
-103 -94 0
-104 91 0
-104 -92 0
-104 93 0
-104 -94 0
-105 -91 0
-105 92 0
-105 93 0
-105 -94 0
-106 91 0
-106 92 0
-106 93 0
-106 -94 0
-107 -91 0
-107 -92 0
-107 -93 0
-107 94 0
-108 91 0
-108 -92 0
-108 -93 0
-108 94 0
-91 -109 0
-109 92 0
-109 -93 0
-109 94 0
91 -110 0
92 -110 0
-93 -110 0
-110 94 0
-91 -111 0
-92 -111 0
93 -111 0
-111 94 0
91 -112 0
-92 -112 0
93 -112 0
94 -112 0
-113 -91 0
-113 92 0
-113 93 0
-113 94 0
-114 91 0
-114 92 0
-114 93 0
-114 94 0
-115 -95 0
-115 -96 0
-97 -115 0
-98 -115 0
-116 95 0
-116 -96 0
-97 -116 0
-98 -116 0
-117 -95 0
96 -117 0
-97 -117 0
-98 -117 0
-118 95 0
96 -118 0
-97 -118 0
-98 -118 0
-119 -95 0
-119 -96 0
97 -119 0
-98 -119 0
-120 95 0
-120 -96 0
97 -120 0
-98 -120 0
-121 -95 0
96 -121 0
97 -121 0
-98 -121 0
-122 95 0
96 -122 0
97 -122 0
-98 -122 0
-123 -95 0
-123 -96 0
-97 -123 0
98 -123 0
-124 95 0
-124 -96 0
-97 -124 0
98 -124 0
-125 -95 0
96 -125 0
-97 -125 0
98 -125 0
-126 95 0
96 -126 0
-97 -126 0
98 -126 0
-127 -95 0
-127 -96 0
97 -127 0
98 -127 0
-128 95 0
-128 -96 0
97 -128 0
98 -128 0
-129 -95 0
-129 96 0
-129 97 0
-129 98 0
-130 95 0
96 -130 0
-130 97 0
-130 98 0
-180 -172 0
-180 -173 0
-180 -174 0
-180 -175 0
-181 172 0
-181 -173 0
-181 -174 0
-181 -175 0
-182 -172 0
-182 173 0
-182 -174 0
-182 -175 0
-183 172 0
-183 173 0
-183 -174 0
-183 -175 0
-184 -172 0
-184 -173 0
-184 174 0
-184 -175 0
-185 172 0
-185 -173 0
-185 174 0
-185 -175 0
-186 -172 0
-186 173 0
-186 174 0
-186 -175 0
-187 172 0
-187 173 0
-187 174 0
-187 -175 0
-188 -172 0
-188 -173 0
-188 -174 0
-188 175 0
-189 172 0
-189 -173 0
-189 -174 0
-189 175 0
-172 -190 0
-190 173 0
-190 -174 0
-190 175 0
172 -191 0
173 -191 0
-174 -191 0
-191 175 0
-172 -192 0
-173 -192 0
174 -192 0
-192 175 0
-193 172 0
-193 -173 0
-193 174 0
-193 175 0
-194 -172 0
-194 173 0
-194 174 0
-194 175 0
-195 172 0
-195 173 0
-195 174 0
-195 175 0
-196 -176 0
-177 -196 0
-178 -196 0
-179 -196 0
176 -197 0
-177 -197 0
-178 -197 0
-179 -197 0
-198 -176 0
177 -198 0
-178 -198 0
-179 -198 0
176 -199 0
177 -199 0
-178 -199 0
-179 -199 0
-200 -176 0
-177 -200 0
178 -200 0
-179 -200 0
176 -201 0
-177 -201 0
178 -201 0
-179 -201 0
-202 -176 0
177 -202 0
178 -202 0
-179 -202 0
176 -203 0
177 -203 0
178 -203 0
-179 -203 0
-204 -176 0
-177 -204 0
-178 -204 0
179 -204 0
176 -205 0
-177 -205 0
-178 -205 0
179 -205 0
-206 -176 0
177 -206 0
-178 -206 0
179 -206 0
176 -207 0
177 -207 0
-178 -207 0
179 -207 0
-208 -176 0
-177 -208 0
178 -208 0
179 -208 0
-209 176 0
-209 -177 0
-209 178 0
-209 179 0
-210 -176 0
-210 177 0
-210 178 0
-210 179 0
176 -211 0
177 -211 0
-211 178 0
-211 179 0
-261 -253 0
-261 -254 0
-261 -255 0
-261 -256 0
-262 253 0
-262 -254 0
-262 -255 0
-262 -256 0
-263 -253 0
-263 254 0
-263 -255 0
-263 -256 0
-264 253 0
-264 254 0
-264 -255 0
-264 -256 0
-265 -253 0
-265 -254 0
-265 255 0
-265 -256 0
-266 253 0
-266 -254 0
-266 255 0
-266 -256 0
-267 -253 0
-267 254 0
-267 255 0
-267 -256 0
-268 253 0
-268 254 0
-268 255 0
-268 -256 0
-269 -253 0
-269 -254 0
-269 -255 0
256 -269 0
-270 253 0
-270 -254 0
-270 -255 0
256 -270 0
-253 -271 0
-271 254 0
-271 -255 0
256 -271 0
253 -272 0
254 -272 0
-255 -272 0
256 -272 0
-273 -253 0
-273 -254 0
-273 255 0
-273 256 0
-274 253 0
-274 -254 0
-274 255 0
256 -274 0
-275 -253 0
-275 254 0
-275 255 0
256 -275 0
-276 253 0
-276 254 0
-276 255 0
256 -276 0
-257 -277 0
-258 -277 0
-259 -277 0
-260 -277 0
257 -278 0
-258 -278 0
-259 -278 0
-260 -278 0
-257 -279 0
258 -279 0
-259 -279 0
-260 -279 0
257 -280 0
258 -280 0
-259 -280 0
-260 -280 0
-257 -281 0
-258 -281 0
259 -281 0
-260 -281 0
257 -282 0
-258 -282 0
259 -282 0
-260 -282 0
-257 -283 0
258 -283 0
259 -283 0
-260 -283 0
257 -284 0
258 -284 0
259 -284 0
-260 -284 0
-257 -285 0
-258 -285 0
-259 -285 0
260 -285 0
257 -286 0
-258 -286 0
-259 -286 0
260 -286 0
-257 -287 0
258 -287 0
-259 -287 0
260 -287 0
257 -288 0
258 -288 0
-259 -288 0
260 -288 0
-289 -257 0
-289 -258 0
-289 259 0
-289 260 0
-290 257 0
-290 -258 0
-290 259 0
-290 260 0
-257 -291 0
-291 258 0
-291 259 0
-291 260 0
257 -292 0
258 -292 0
-292 259 0
-292 260 0
-50 -99 0
-100 -52 0
-101 -54 0
-102 -56 0
-103 -58 0
-104 -60 0
-105 -62 0
-106 -64 0
-66 -107 0
-68 -108 0
-70 -109 0
-72 -110 0
-74 -111 0
-76 -112 0
-113 -78 0
-114 -80 0
-50 -115 0
-116 -52 0
-117 -54 0
-118 -56 0
-119 -58 0
-120 -60 0
-121 -62 0
-122 -64 0
-66 -123 0
-68 -124 0
-70 -125 0
-72 -126 0
-74 -127 0
-76 -128 0
-129 -78 0
-130 -80 0
-131 -180 0
-181 -133 0
-182 -135 0
-183 -137 0
-184 -139 0
-185 -141 0
-186 -143 0
-145 -187 0
-147 -188 0
-149 -189 0
-151 -190 0
-153 -191 0
-155 -192 0
-193 -157 0
-194 -159 0
-161 -195 0
-131 -196 0
-197 -133 0
-198 -135 0
-199 -137 0
-200 -139 0
-201 -141 0
-202 -143 0
-145 -203 0
-147 -204 0
-149 -205 0
-151 -206 0
-153 -207 0
-155 -208 0
-209 -157 0
-210 -159 0
-161 -211 0
-212 -261 0
-262 -214 0
-263 -216 0
-264 -218 0
-265 -220 0
-266 -222 0
-267 -224 0
-226 -268 0
-228 -269 0
-230 -270 0
-232 -271 0
-234 -272 0
-273 -236 0
-274 -238 0
-275 -240 0
-242 -276 0
-212 -277 0
-278 -214 0
-279 -216 0
-280 -218 0
-281 -220 0
-282 -222 0
-283 -224 0
-226 -284 0
-228 -285 0
-230 -286 0
-232 -287 0
-234 -288 0
-289 -236 0
-290 -238 0
-291 -240 0
-242 -292 0
-18 50 0
-19 52 0
-20 54 0
-21 56 0
-22 58 0
-23 60 0
-24 62 0
64 -25 0
66 -26 0
68 -27 0
70 -28 0
72 -29 0
74 -30 0
76 -31 0
78 -32 0
-33 80 0
-34 50 0
-35 52 0
-36 54 0
-37 56 0
-38 58 0
-39 60 0
-40 62 0
64 -41 0
66 -42 0
68 -43 0
70 -44 0
72 -45 0
74 -46 0
76 -47 0
78 -48 0
-49 80 0
-99 131 0
-100 133 0
-101 135 0
-102 137 0
-103 139 0
-104 141 0
-105 143 0
145 -106 0
147 -107 0
149 -108 0
151 -109 0
153 -110 0
155 -111 0
157 -112 0
-113 159 0
-114 161 0
-115 131 0
-116 133 0
-117 135 0
-118 137 0
-119 139 0
-120 141 0
-121 143 0
145 -122 0
147 -123 0
149 -124 0
151 -125 0
153 -126 0
155 -127 0
157 -128 0
-129 159 0
-130 161 0
-180 212 0
-181 214 0
-182 216 0
-183 218 0
-184 220 0
-185 222 0
224 -186 0
226 -187 0
228 -188 0
230 -189 0
232 -190 0
234 -191 0
236 -192 0
-193 238 0
240 -194 0
-195 242 0
-196 212 0
-197 214 0
-198 216 0
-199 218 0
-200 220 0
-201 222 0
224 -202 0
226 -203 0
228 -204 0
230 -205 0
232 -206 0
234 -207 0
236 -208 0
-209 238 0
240 -210 0
-211 242 0
-261 293 0
-262 295 0
-263 297 0
-264 299 0
-265 301 0
-266 303 0
305 -267 0
307 -268 0
309 -269 0
311 -270 0
313 -271 0
315 -272 0
-273 317 0
-274 319 0
321 -275 0
-276 323 0
-277 293 0
-278 295 0
-279 297 0
-280 299 0
-281 301 0
-282 303 0
305 -283 0
307 -284 0
309 -285 0
311 -286 0
313 -287 0
315 -288 0
-289 317 0
-290 319 0
321 -291 0
-292 323 0
-18 1 0
1 -19 0
1 -20 0
1 -21 0
1 -22 0
1 -23 0
1 -24 0
1 -25 0
1 -26 0
1 -27 0
1 -28 0
1 -29 0
1 -30 0
1 -31 0
1 -32 0
-33 1 0
-34 1 0
1 -35 0
1 -36 0
1 -37 0
1 -38 0
1 -39 0
1 -40 0
1 -41 0
1 -42 0
1 -43 0
1 -44 0
1 -45 0
1 -46 0
1 -47 0
1 -48 0
-49 1 0
-99 82 0
82 -100 0
82 -101 0
82 -102 0
82 -103 0
82 -104 0
82 -105 0
82 -106 0
82 -107 0
82 -108 0
82 -109 0
82 -110 0
82 -111 0
82 -112 0
-113 82 0
-114 82 0
-115 82 0
82 -116 0
82 -117 0
82 -118 0
82 -119 0
82 -120 0
82 -121 0
82 -122 0
82 -123 0
82 -124 0
82 -125 0
82 -126 0
82 -127 0
82 -128 0
-129 82 0
-130 82 0
-180 163 0
163 -181 0
163 -182 0
163 -183 0
163 -184 0
163 -185 0
163 -186 0
163 -187 0
163 -188 0
163 -189 0
163 -190 0
163 -191 0
163 -192 0
-193 163 0
-194 163 0
-195 163 0
-196 163 0
163 -197 0
163 -198 0
163 -199 0
163 -200 0
163 -201 0
163 -202 0
163 -203 0
163 -204 0
163 -205 0
163 -206 0
163 -207 0
163 -208 0
-209 163 0
-210 163 0
-211 163 0
-261 244 0
244 -262 0
244 -263 0
244 -264 0
244 -265 0
244 -266 0
244 -267 0
244 -268 0
244 -269 0
244 -270 0
244 -271 0
244 -272 0
-273 244 0
-274 244 0
-275 244 0
-276 244 0
-277 244 0
244 -278 0
244 -279 0
244 -280 0
244 -281 0
244 -282 0
244 -283 0
244 -284 0
244 -285 0
244 -286 0
244 -287 0
244 -288 0
-289 244 0
-290 244 0
-291 244 0
-292 244 0
-50 18 34 0
-52 19 35 0
20 36 -54 0
21 37 -56 0
22 38 -58 0
23 39 -60 0
24 40 -62 0
25 41 -64 0
-66 26 42 0
-68 27 43 0
-70 28 44 0
-72 29 45 0
-74 30 46 0
-76 31 47 0
32 48 -78 0
33 49 -80 0
50 -131 99 115 0
52 -133 100 116 0
101 117 54 -135 0
102 118 56 -137 0
103 119 58 -139 0
104 120 60 -141 0
105 121 62 -143 0
64 -145 106 122 0
66 -147 107 123 0
68 -149 108 124 0
70 -151 109 125 0
72 -153 110 126 0
74 -155 111 127 0
112 128 76 -157 0
113 129 78 -159 0
80 -161 114 130 0
131 -212 180 196 0
133 -214 181 197 0
182 198 135 -216 0
183 199 137 -218 0
184 200 139 -220 0
185 201 141 -222 0
186 202 143 -224 0
145 -226 187 203 0
147 -228 188 204 0
149 -230 189 205 0
151 -232 190 206 0
153 -234 191 207 0
192 208 155 -236 0
193 209 157 -238 0
194 210 159 -240 0
161 -242 195 211 0
212 -293 261 277 0
214 -295 262 278 0
263 279 216 -297 0
264 280 218 -299 0
265 281 220 -301 0
266 282 222 -303 0
224 -305 267 283 0
226 -307 268 284 0
228 -309 269 285 0
230 -311 270 286 0
232 -313 271 287 0
272 288 234 -315 0
273 289 236 -317 0
274 290 238 -319 0
240 -321 275 291 0
242 -323 276 292 0
-50 -51 0
-131 -132 0
-212 -213 0
-293 -294 0
-52 -53 0
-133 -134 0
-214 -215 0
-295 -296 0
-54 -55 0
-135 -136 0
-216 -217 0
-297 -298 0
-56 -57 0
-137 -138 0
-218 -219 0
-299 -300 0
-58 -59 0
-139 -140 0
-220 -221 0
-301 -302 0
-60 -61 0
-141 -142 0
-222 -223 0
-303 -304 0
-62 -63 0
-143 -144 0
-225 -224 0
-305 -306 0
-65 -64 0
-145 -146 0
-226 -227 0
-307 -308 0
-66 -67 0
-147 -148 0
-228 -229 0
-309 -310 0
-68 -69 0
-149 -150 0
-230 -231 0
-311 -312 0
-70 -71 0
-151 -152 0
-232 -233 0
-313 -314 0
-72 -73 0
-153 -154 0
-234 -235 0
-315 -316 0
-74 -75 0
-155 -156 0
-236 -237 0
-317 -318 0
-76 -77 0
-157 -158 0
-238 -239 0
-319 -320 0
-78 -79 0
-159 -160 0
-241 -240 0
-321 -322 0
-81 -80 0
-161 -162 0
-242 -243 0
-323 -324 0
-82 1 0
-163 82 0
-244 163 0
-50 131 0
-51 132 0
-52 133 0
-53 134 0
-54 135 0
-55 136 0
-56 137 0
-57 138 0
-58 139 0
-59 140 0
-60 141 0
-61 142 0
-62 143 0
144 -63 0
145 -64 0
-65 146 0
-66 147 0
-67 148 0
-68 149 0
-69 150 0
-70 151 0
-71 152 0
-72 153 0
-73 154 0
-74 155 0
-75 156 0
-76 157 0
-77 158 0
-78 159 0
160 -79 0
161 -80 0
-81 162 0
-131 212 0
-132 213 0
-133 214 0
-134 215 0
-135 216 0
-136 217 0
-137 218 0
-138 219 0
-139 220 0
-140 221 0
-141 222 0
-142 223 0
224 -143 0
225 -144 0
-145 226 0
-146 227 0
-147 228 0
-148 229 0
-149 230 0
-150 231 0
-151 232 0
-152 233 0
-153 234 0
-154 235 0
-155 236 0
-156 237 0
-157 238 0
-158 239 0
240 -159 0
241 -160 0
-161 242 0
-162 243 0
-212 293 0
-213 294 0
-214 295 0
-215 296 0
-216 297 0
-217 298 0
-218 299 0
-219 300 0
-220 301 0
-221 302 0
-222 303 0
304 -223 0
305 -224 0
-225 306 0
-226 307 0
-227 308 0
-228 309 0
-229 310 0
-230 311 0
-231 312 0
-232 313 0
-233 314 0
-234 315 0
-235 316 0
-236 317 0
-237 318 0
-238 319 0
320 -239 0
321 -240 0
-241 322 0
-242 323 0
-243 324 0
1 -50 0
1 -51 0
1 -52 0
1 -53 0
1 -54 0
1 -55 0
1 -56 0
1 -57 0
1 -58 0
1 -59 0
1 -60 0
1 -61 0
1 -62 0
1 -63 0
1 -64 0
-65 1 0
1 -66 0
1 -67 0
1 -68 0
1 -69 0
1 -70 0
1 -71 0
1 -72 0
1 -73 0
1 -74 0
1 -75 0
1 -76 0
1 -77 0
1 -78 0
1 -79 0
1 -80 0
-81 1 0
82 50 -131 0
82 51 -132 0
82 52 -133 0
82 53 -134 0
82 54 -135 0
82 55 -136 0
82 56 -137 0
82 57 -138 0
82 58 -139 0
82 59 -140 0
82 60 -141 0
82 61 -142 0
82 62 -143 0
82 63 -144 0
64 -145 82 0
65 -146 82 0
82 66 -147 0
82 67 -148 0
82 68 -149 0
82 69 -150 0
82 70 -151 0
82 71 -152 0
82 72 -153 0
82 73 -154 0
82 74 -155 0
82 75 -156 0
82 76 -157 0
82 77 -158 0
82 78 -159 0
82 79 -160 0
80 -161 82 0
81 -162 82 0
163 131 -212 0
163 132 -213 0
163 133 -214 0
163 134 -215 0
163 135 -216 0
163 136 -217 0
163 137 -218 0
163 138 -219 0
163 139 -220 0
163 140 -221 0
163 141 -222 0
163 142 -223 0
163 143 -224 0
144 -225 163 0
145 -226 163 0
146 -227 163 0
163 147 -228 0
163 148 -229 0
163 149 -230 0
163 150 -231 0
163 151 -232 0
163 152 -233 0
163 153 -234 0
163 154 -235 0
163 155 -236 0
163 156 -237 0
163 157 -238 0
163 158 -239 0
163 159 -240 0
160 -241 163 0
161 -242 163 0
162 -243 163 0
244 212 -293 0
244 213 -294 0
244 214 -295 0
244 215 -296 0
244 216 -297 0
244 217 -298 0
244 218 -299 0
244 219 -300 0
244 220 -301 0
244 221 -302 0
244 222 -303 0
244 223 -304 0
224 -305 244 0
225 -306 244 0
226 -307 244 0
227 -308 244 0
244 228 -309 0
244 229 -310 0
244 230 -311 0
244 231 -312 0
244 232 -313 0
244 233 -314 0
244 234 -315 0
244 235 -316 0
244 236 -317 0
244 237 -318 0
244 238 -319 0
244 239 -320 0
240 -321 244 0
241 -322 244 0
242 -323 244 0
243 -324 244 0
352 353 354 355 356 325 326 327 328 329 330 331 332 333 334 335 336 337 338 339 340 341 342 343 344 345 346 347 348 349 350 351 0
-325 293 0
-325 301 0
-325 309 0
-325 317 0
-326 293 0
-326 295 0
-326 297 0
-326 299 0
-327 295 0
-327 303 0
-327 311 0
-327 319 0
-328 295 0
-328 297 0
-328 299 0
293 -328 0
-329 297 0
305 -329 0
-329 313 0
321 -329 0
-330 297 0
-330 299 0
293 -330 0
295 -330 0
-331 299 0
307 -331 0
-331 315 0
323 -331 0
-332 299 0
293 -332 0
295 -332 0
297 -332 0
-333 301 0
309 -333 0
-333 317 0
293 -333 0
-334 301 0
-334 303 0
305 -334 0
307 -334 0
-335 303 0
311 -335 0
-335 319 0
295 -335 0
-336 303 0
305 -336 0
307 -336 0
301 -336 0
-337 305 0
-337 313 0
-337 321 0
-337 297 0
-338 305 0
-338 307 0
-338 301 0
-338 303 0
-339 307 0
-339 315 0
-339 323 0
-339 299 0
-340 307 0
-340 301 0
-340 303 0
305 -340 0
-341 309 0
-341 317 0
-341 293 0
-341 301 0
-342 309 0
-342 311 0
-342 313 0
-342 315 0
-343 311 0
-343 319 0
-343 295 0
-343 303 0
-344 311 0
-344 313 0
-344 315 0
309 -344 0
-345 313 0
321 -345 0
-345 297 0
305 -345 0
-346 313 0
-346 315 0
309 -346 0
311 -346 0
-347 315 0
323 -347 0
-347 299 0
307 -347 0
-348 315 0
309 -348 0
311 -348 0
313 -348 0
-349 317 0
293 -349 0
-349 301 0
309 -349 0
-350 317 0
-350 319 0
321 -350 0
323 -350 0
-351 319 0
295 -351 0
-351 303 0
311 -351 0
-352 319 0
321 -352 0
323 -352 0
317 -352 0
-353 321 0
-353 297 0
-353 305 0
-353 313 0
-354 321 0
-354 323 0
-354 317 0
-354 319 0
-355 323 0
-355 299 0
-355 307 0
-355 315 0
-356 323 0
-356 317 0
-356 319 0
321 -356 0
-293 -309 325 -301 -317 0
-293 326 -295 -297 -299 0
-295 -311 327 -303 -319 0
-293 -295 328 -297 -299 0
-305 -321 -297 -313 329 0
-293 -295 -297 330 -299 0
-307 -323 -299 -315 331 0
-293 -295 -297 -299 332 0
-309 -293 -301 -317 333 0
-305 -307 -301 334 -303 0
-311 -295 -303 -319 335 0
336 -305 -307 -301 -303 0
-305 -321 337 -313 -297 0
-305 338 -307 -301 -303 0
-307 -323 339 -315 -299 0
-305 -307 340 -301 -303 0
-309 -293 341 -317 -301 0
-309 342 -311 -313 -315 0
-311 -295 343 -319 -303 0
-309 -311 344 -313 -315 0
-321 -305 -313 -297 345 0
-309 -311 -313 346 -315 0
-323 -307 -315 -299 347 0
-309 -311 -313 -315 348 0
-293 -309 -317 -301 349 0
-321 -323 -317 350 -319 0
-295 -311 -319 -303 351 0
352 -321 -323 -317 -319 0
-321 -305 353 -297 -313 0
-321 354 -323 -317 -319 0
-323 -307 355 -299 -315 0
-321 -323 356 -317 -319 0
-294 -310 -302 -318 0
-294 -296 -298 -300 0
-296 -312 -304 -320 0
-294 -296 -298 -300 0
-306 -322 -298 -314 0
-294 -296 -298 -300 0
-308 -324 -300 -316 0
-294 -296 -298 -300 0
-310 -294 -302 -318 0
-306 -308 -302 -304 0
-312 -296 -304 -320 0
-306 -308 -302 -304 0
-306 -322 -314 -298 0
-306 -308 -302 -304 0
-308 -324 -316 -300 0
-306 -308 -302 -304 0
-310 -294 -318 -302 0
-310 -312 -314 -316 0
-312 -296 -320 -304 0
-310 -312 -314 -316 0
-322 -306 -314 -298 0
-310 -312 -314 -316 0
-324 -308 -316 -300 0
-310 -312 -314 -316 0
-294 -310 -318 -302 0
-322 -324 -318 -320 0
-296 -312 -320 -304 0
-322 -324 -318 -320 0
-322 -306 -298 -314 0
-322 -324 -318 -320 0
-324 -308 -300 -316 0
-322 -324 -318 -320 0
